(declare-const x0 Bool)
(declare-const x1 Bool)
(declare-const x2 Bool)
(declare-const x3 Bool)
(declare-const x4 Bool)
(declare-const x5 Bool)
(declare-const x6 Bool)
(declare-const x7 Bool)
(declare-const x8 Bool)
(declare-const x9 Bool)
(declare-const x10 Bool)
(declare-const x11 Bool)
(declare-const x12 Bool)
(declare-const x13 Bool)
(declare-const x14 Bool)
(declare-const x15 Bool)
(declare-const x16 Bool)
(declare-const x17 Bool)
(declare-const x18 Bool)
(declare-const x19 Bool)
(declare-const x20 Bool)
(declare-const x21 Bool)
(declare-const x22 Bool)
(declare-const x23 Bool)
(declare-const x24 Bool)
(declare-const x25 Bool)
(declare-const x26 Bool)
(declare-const x27 Bool)
(declare-const x28 Bool)
(declare-const x29 Bool)
(declare-const x30 Bool)
(declare-const x31 Bool)
(declare-const x32 Bool)
(declare-const x33 Bool)
(declare-const x34 Bool)
(declare-const x35 Bool)
(declare-const x36 Bool)
(declare-const x37 Bool)
(declare-const x38 Bool)
(declare-const x39 Bool)
(declare-const x40 Bool)
(declare-const x41 Bool)
(declare-const x42 Bool)
(declare-const x43 Bool)
(declare-const x44 Bool)
(declare-const x45 Bool)
(declare-const x46 Bool)
(declare-const x47 Bool)
(declare-const x48 Bool)
(declare-const x49 Bool)
(declare-const x50 Bool)
(declare-const x51 Bool)
(declare-const x52 Bool)
(declare-const x53 Bool)
(declare-const x54 Bool)
(declare-const x55 Bool)
(declare-const x56 Bool)
(declare-const x57 Bool)
(assert (and x28 (and x53 x10)))
(assert (or (= (or x21 (or x12 false)) x38) (= (= (and x5 false) (and x24 true)) (or (= (and false x11) (and true true)) (and true x4)))))
(assert (or (= true true) (and (= (or x27 false) x45) (or (or (or (or true x43) (= x54 false)) true) (= false true)))))
(assert (and (and x29 (= (= (= x48 x0) x4) false)) (= false x22)))
(assert (or (or x56 (or true true)) (and false true)))
(assert (= x7 (= x52 x1)))
(assert (or (= true true) (and false x54)))
(assert x1)
(assert (and (= x49 false) (and x51 (= x46 false))))
(assert (and (and x14 x17) (or x16 false)))
(check-sat)
